(set-logic QF_S)
(declare-fun var_0xINPUT_269537 () String)
(assert (and (= (len var_0xINPUT_269537) 0) (= (len var_0xINPUT_269537) 0) (not (= var_0xINPUT_269537 "Example:")) (not (= var_0xINPUT_269537 "ywUN4ZIDAC"))))
(check-sat var_0xINPUT_269537)